Maximize
  - 3.929473467872 edge_0_1_0_0 - 2.6581102729467 edge_0_2_0_0
   - 1.1621821397472 edge_0_3_0_0 - 2.5378058685728 edge_0_4_0_0
   - 2.4810614318427 edge_0_6_0_0 - 3.1799981612146 edge_0_8_0_0
   - 3.1173061278144 edge_0_13_0_0 - 2.9870821271284 edge_0_15_0_0
   - 4.8386773272145 edge_0_18_0_0 - 0.4382245379944951 edge_1_2_0_0
   - 0.0246269370238287 edge_1_3_0_0 - 0.8479308054700906 edge_1_4_0_0
   - 0.6748755778240231 edge_1_6_0_0 - 0.7506299411456 edge_1_8_0_0
   - 0.7747660073566401 edge_1_9_0_0 + 3.625090014600609 edge_2_1_0_0
   + 2.082080668040259 edge_2_3_0_0 + 0.8030452665772042 edge_2_4_0_0
   + 1.059540046904193 edge_2_6_0_0 - 0.4351845057628506 edge_2_7_0_0
   + 0.3583423630847087 edge_2_8_0_0 + 0.8841074789722032 edge_2_9_0_0
   - 0.0264971302159865 edge_2_10_0_0 + 0.6350357768977003 edge_2_11_0_0
   + 1.479439368193171 edge_2_12_0_0 - 0.0311389598959072 edge_2_13_0_0
   + 0.4175767526928497 edge_2_15_0_0 + 1.488896247654117 edge_2_16_0_0
   + 0.2877201925782311 edge_2_17_0_0 + 0.8824408139233871 edge_2_18_0_0
   + 2.4998121066471 edge_2_21_0_0 + 2.398077793502691 edge_3_1_0_0
   + 2.246593406938689 edge_3_2_0_0 + 1.764426320178701 edge_3_4_0_0
   + 0.6054920411625 edge_3_5_0_0 + 2.7391088495738 edge_3_6_0_0
   + 0.7148608510583959 edge_3_7_0_0 + 1.95999388299 edge_3_8_0_0
   + 1.6618785224922 edge_3_9_0_0 + 1.2529599248224 edge_3_10_0_0
   + 2.3842766048895 edge_3_11_0_0 + 2.5397170155096 edge_3_12_0_0
   - 0.0597029448859618 edge_3_13_0_0 + 1.170984615971692 edge_3_15_0_0
   + 3.20304487044 edge_3_16_0_0 + 1.907904277737229 edge_3_17_0_0
   + 3.034007150188639 edge_3_18_0_0 + 0.2810944735820572 edge_3_20_0_0
   + 5.82327895934215 edge_3_21_0_0 + 0.2423693502306347 edge_4_1_0_0
   + 0.523009939030714 edge_4_2_0_0 + 0.4753955954231474 edge_4_3_0_0
   + 0.6848767827200617 edge_4_6_0_0 - 0.8369726278507054 edge_4_7_0_0
   + 0.7077132185471453 edge_4_8_0_0 + 0.325305349289141 edge_4_9_0_0
   + 0.2087115249665629 edge_4_10_0_0 + 0.2707850297280615 edge_4_12_0_0
   + 0.5953036294049487 edge_4_13_0_0 - 0.3095785773587593 edge_4_15_0_0
   - 0.4688831033530406 edge_4_17_0_0 - 0.5918753083783076 edge_4_18_0_0
   - 0.3363669853646454 edge_4_21_0_0 + 0.0849167919655675 edge_5_4_0_0
   - 0.6690806494128326 edge_5_9_0_0 + 0.0446650404638271 edge_6_1_0_0
   + 0.8891600843604729 edge_6_2_0_0 + 0.8030140406604754 edge_6_3_0_0
   + 2.956828681119933 edge_6_4_0_0 + 3.752006691569028 edge_6_5_0_0
   + 0.7353506635345916 edge_6_7_0_0 + 2.6865288716574 edge_6_8_0_0
   + 1.783282648587373 edge_6_9_0_0 + 1.486679286393638 edge_6_10_0_0
   + 1.378834105701432 edge_6_11_0_0 + 1.810187769720017 edge_6_12_0_0
   + 2.101505849887108 edge_6_13_0_0 + 0.9789945888221 edge_6_15_0_0
   + 1.547452506649674 edge_6_16_0_0 + 0.614727128287867 edge_6_17_0_0
   + 0.5118539749334382 edge_6_18_0_0 + 3.2470586362348 edge_6_21_0_0
   - 0.1543222607998556 edge_7_2_0_0 - 0.1732234609110715 edge_7_4_0_0
   + 0.0695904963819322 edge_7_6_0_0 + 0.599387939139 edge_7_8_0_0
   + 1.188921138314335 edge_7_9_0_0 + 0.5979167516937427 edge_7_10_0_0
   - 0.5299250100512691 edge_7_12_0_0 - 1.322927029252333 edge_7_13_0_0
   - 0.8897233264459299 edge_7_15_0_0 - 0.7076115723381462 edge_7_18_0_0
   - 0.776910926624 edge_8_1_0_0 - 0.07422987077597 edge_8_2_0_0
   - 0.0839495 edge_8_3_0_0 + 0.2783892001351874 edge_8_4_0_0
   + 0.7025714093675001 edge_8_5_0_0 + 0.6633537828842306 edge_8_6_0_0
   + 2.9883300036525 edge_8_7_0_0 + 3.4401099919836 edge_8_9_0_0
   + 3.22212 edge_8_10_0_0 + 1.088536871628 edge_8_11_0_0
   + 1.231539072564 edge_8_12_0_0 + 0.5557307139073999 edge_8_13_0_0
   + 1.202161559407753 edge_8_15_0_0 + 1.2694182879225 edge_8_16_0_0
   + 0.13008830423104 edge_8_17_0_0 + 0.8729273860592042 edge_8_18_0_0
   - 0.376842786264 edge_8_20_0_0 + 1.68692 edge_8_21_0_0
   - 1.055349977959645 edge_9_2_0_0 - 1.280981867170244 edge_9_3_0_0
   - 1.007704451094679 edge_9_4_0_0 - 0.8056852410225386 edge_9_6_0_0
   - 0.0344320477291135 edge_9_7_0_0 - 0.1708977274734297 edge_9_8_0_0
   + 0.44467077660022 edge_9_10_0_0 + 0.4414672531387406 edge_9_11_0_0
   + 1.061780302710578 edge_9_12_0_0 + 0.0556541040687579 edge_9_16_0_0
   - 1.72654363336 edge_10_1_0_0 - 0.7504354850600382 edge_10_2_0_0
   - 0.3096249814225 edge_10_3_0_0 - 0.2274887875182013 edge_10_4_0_0
   - 0.1907079291785671 edge_10_6_0_0 + 0.8139269332915 edge_10_7_0_0
   + 0.555812 edge_10_8_0_0 + 1.003141502503998 edge_10_9_0_0
   + 0.9588149743207481 edge_10_11_0_0 + 1.36813133357777 edge_10_12_0_0
   + 0.6221019328368 edge_10_13_0_0 + 1.464044845290056 edge_10_15_0_0
   + 0.3110353063576305 edge_10_16_0_0 + 0.2079964011555606 edge_10_17_0_0
   + 1.352633211671036 edge_10_18_0_0 - 0.550862988606 edge_10_20_0_0
   + 0.95479536983464 edge_10_21_0_0 - 0.9767015505653456 edge_12_8_0_0
   + 0.0202372736051453 edge_12_9_0_0 - 0.1918877439025813 edge_12_10_0_0
   - 0.039017202838841 edge_12_11_0_0 - 0.1678775563600486 edge_12_13_0_0
   - 0.3739452579073561 edge_12_15_0_0 + 0.2047140861422369 edge_12_17_0_0
   - 1.391485943818002 edge_12_20_0_0 - 0.7176091360288116 edge_13_2_0_0
   - 1.008024850625964 edge_13_3_0_0 - 0.7982398508700541 edge_13_8_0_0
   - 0.6974163702376284 edge_13_9_0_0 - 0.3804063314829426 edge_13_10_0_0
   + 0.2281017994007346 edge_13_12_0_0 + 0.7643441038559426 edge_13_15_0_0
   + 0.2306465230434222 edge_13_17_0_0 - 0.0253918629396987 edge_13_18_0_0
   - 0.8417507075533056 edge_13_20_0_0 - 0.3999309825746798 edge_13_21_0_0
   + 0.5377057700259309 edge_14_13_0_0 - 0.5032473122827138 edge_15_1_0_0
   - 9.0297089326955024e-04 edge_15_2_0_0
   + 0.2381772506148413 edge_15_3_0_0 + 1.157484249954216 edge_15_4_0_0
   + 0.4962073943991672 edge_15_6_0_0 + 1.125863178164222 edge_15_7_0_0
   - 0.2929509104164 edge_15_8_0_0 + 0.2060455470029487 edge_15_9_0_0
   + 0.2753761672340757 edge_15_10_0_0 - 0.0405853447383 edge_15_11_0_0
   + 0.6926360431477108 edge_15_12_0_0 + 2.9353600687698 edge_15_13_0_0
   + 3.874151730539 edge_15_14_0_0 + 0.5782243442932501 edge_15_16_0_0
   + 1.453869813713848 edge_15_17_0_0 + 2.538656376034005 edge_15_18_0_0
   + 0.3804363687340725 edge_15_20_0_0 + 1.30823 edge_15_21_0_0
   - 0.74935441103025 edge_16_15_0_0 - 0.6982849114224841 edge_17_13_0_0
   - 0.8086052825243599 edge_17_15_0_0 + 0.1309810268627591 edge_17_18_0_0
   - 0.7157540579488485 edge_17_20_0_0 + 0.19801235223064 edge_17_21_0_0
   - 3.024236961045788 edge_18_1_0_0 - 0.7316214939551771 edge_18_2_0_0
   - 0.13195394458555 edge_18_3_0_0 - 0.3670238335093191 edge_18_4_0_0
   - 0.1226365641181954 edge_18_6_0_0 - 0.26464959042939 edge_18_8_0_0
   + 0.4398524427034473 edge_18_9_0_0 - 0.4216905814794336 edge_18_10_0_0
   - 0.2923575634517293 edge_18_11_0_0 + 0.1991831418271147 edge_18_12_0_0
   + 0.1668999068691051 edge_18_13_0_0 + 0.10994448382811 edge_18_15_0_0
   - 0.2028225634862003 edge_18_16_0_0 + 2.214128199891678 edge_18_17_0_0
   + 3.515715415782282 edge_18_20_0_0 + 2.4473845543901 edge_18_21_0_0
   - 1.269018890255164 edge_20_1_0_0 - 0.7570852195626983 edge_20_13_0_0
   - 1.097413943691858 edge_20_15_0_0 - 0.5490180656392888 edge_20_17_0_0
   + 1.03817069432489 edge_20_21_0_0 - 0.65499009220811 edge_21_18_0_0
   - 1.451718803272958 edge_21_20_0_0
Subject To
 one_parent_1: edge_0_1_0_0 + edge_2_1_0_0 + edge_3_1_0_0 + edge_4_1_0_0
   + edge_6_1_0_0 + edge_8_1_0_0 + edge_10_1_0_0 + edge_15_1_0_0
   + edge_18_1_0_0 + edge_20_1_0_0 = 1
 consume_one_flow_unit_1: flow_0_1_0_0 - flow_1_2_0_0 - flow_1_3_0_0
   - flow_1_4_0_0 - flow_1_6_0_0 - flow_1_8_0_0 - flow_1_9_0_0
   + flow_2_1_0_0 + flow_3_1_0_0 + flow_4_1_0_0 + flow_6_1_0_0
   + flow_8_1_0_0 + flow_10_1_0_0 + flow_15_1_0_0 + flow_18_1_0_0
   + flow_20_1_0_0 = 1
 one_parent_2: edge_0_2_0_0 + edge_1_2_0_0 + edge_3_2_0_0 + edge_4_2_0_0
   + edge_6_2_0_0 + edge_7_2_0_0 + edge_8_2_0_0 + edge_9_2_0_0
   + edge_10_2_0_0 + edge_13_2_0_0 + edge_15_2_0_0 + edge_18_2_0_0 = 1
 consume_one_flow_unit_2: flow_0_2_0_0 + flow_1_2_0_0 - flow_2_1_0_0
   - flow_2_3_0_0 - flow_2_4_0_0 - flow_2_6_0_0 - flow_2_7_0_0
   - flow_2_8_0_0 - flow_2_9_0_0 - flow_2_10_0_0 - flow_2_11_0_0
   - flow_2_12_0_0 - flow_2_13_0_0 - flow_2_15_0_0 - flow_2_16_0_0
   - flow_2_17_0_0 - flow_2_18_0_0 - flow_2_21_0_0 + flow_3_2_0_0
   + flow_4_2_0_0 + flow_6_2_0_0 + flow_7_2_0_0 + flow_8_2_0_0
   + flow_9_2_0_0 + flow_10_2_0_0 + flow_13_2_0_0 + flow_15_2_0_0
   + flow_18_2_0_0 = 1
 one_parent_3: edge_0_3_0_0 + edge_1_3_0_0 + edge_2_3_0_0 + edge_4_3_0_0
   + edge_6_3_0_0 + edge_8_3_0_0 + edge_9_3_0_0 + edge_10_3_0_0
   + edge_13_3_0_0 + edge_15_3_0_0 + edge_18_3_0_0 = 1
 consume_one_flow_unit_3: flow_0_3_0_0 + flow_1_3_0_0 + flow_2_3_0_0
   - flow_3_1_0_0 - flow_3_2_0_0 - flow_3_4_0_0 - flow_3_5_0_0
   - flow_3_6_0_0 - flow_3_7_0_0 - flow_3_8_0_0 - flow_3_9_0_0
   - flow_3_10_0_0 - flow_3_11_0_0 - flow_3_12_0_0 - flow_3_13_0_0
   - flow_3_15_0_0 - flow_3_16_0_0 - flow_3_17_0_0 - flow_3_18_0_0
   - flow_3_20_0_0 - flow_3_21_0_0 + flow_4_3_0_0 + flow_6_3_0_0
   + flow_8_3_0_0 + flow_9_3_0_0 + flow_10_3_0_0 + flow_13_3_0_0
   + flow_15_3_0_0 + flow_18_3_0_0 = 1
 one_parent_4: edge_0_4_0_0 + edge_1_4_0_0 + edge_2_4_0_0 + edge_3_4_0_0
   + edge_5_4_0_0 + edge_6_4_0_0 + edge_7_4_0_0 + edge_8_4_0_0
   + edge_9_4_0_0 + edge_10_4_0_0 + edge_15_4_0_0 + edge_18_4_0_0 = 1
 consume_one_flow_unit_4: flow_0_4_0_0 + flow_1_4_0_0 + flow_2_4_0_0
   + flow_3_4_0_0 - flow_4_1_0_0 - flow_4_2_0_0 - flow_4_3_0_0
   - flow_4_6_0_0 - flow_4_7_0_0 - flow_4_8_0_0 - flow_4_9_0_0
   - flow_4_10_0_0 - flow_4_12_0_0 - flow_4_13_0_0 - flow_4_15_0_0
   - flow_4_17_0_0 - flow_4_18_0_0 - flow_4_21_0_0 + flow_5_4_0_0
   + flow_6_4_0_0 + flow_7_4_0_0 + flow_8_4_0_0 + flow_9_4_0_0
   + flow_10_4_0_0 + flow_15_4_0_0 + flow_18_4_0_0 = 1
 one_parent_5: edge_3_5_0_0 + edge_6_5_0_0 + edge_8_5_0_0 = 1
 consume_one_flow_unit_5: flow_3_5_0_0 - flow_5_4_0_0 - flow_5_9_0_0
   + flow_6_5_0_0 + flow_8_5_0_0 = 1
 one_parent_6: edge_0_6_0_0 + edge_1_6_0_0 + edge_2_6_0_0 + edge_3_6_0_0
   + edge_4_6_0_0 + edge_7_6_0_0 + edge_8_6_0_0 + edge_9_6_0_0
   + edge_10_6_0_0 + edge_15_6_0_0 + edge_18_6_0_0 = 1
 consume_one_flow_unit_6: flow_0_6_0_0 + flow_1_6_0_0 + flow_2_6_0_0
   + flow_3_6_0_0 + flow_4_6_0_0 - flow_6_1_0_0 - flow_6_2_0_0
   - flow_6_3_0_0 - flow_6_4_0_0 - flow_6_5_0_0 - flow_6_7_0_0
   - flow_6_8_0_0 - flow_6_9_0_0 - flow_6_10_0_0 - flow_6_11_0_0
   - flow_6_12_0_0 - flow_6_13_0_0 - flow_6_15_0_0 - flow_6_16_0_0
   - flow_6_17_0_0 - flow_6_18_0_0 - flow_6_21_0_0 + flow_7_6_0_0
   + flow_8_6_0_0 + flow_9_6_0_0 + flow_10_6_0_0 + flow_15_6_0_0
   + flow_18_6_0_0 = 1
 one_parent_7: edge_2_7_0_0 + edge_3_7_0_0 + edge_4_7_0_0 + edge_6_7_0_0
   + edge_8_7_0_0 + edge_9_7_0_0 + edge_10_7_0_0 + edge_15_7_0_0 = 1
 consume_one_flow_unit_7: flow_2_7_0_0 + flow_3_7_0_0 + flow_4_7_0_0
   + flow_6_7_0_0 - flow_7_2_0_0 - flow_7_4_0_0 - flow_7_6_0_0
   - flow_7_8_0_0 - flow_7_9_0_0 - flow_7_10_0_0 - flow_7_12_0_0
   - flow_7_13_0_0 - flow_7_15_0_0 - flow_7_18_0_0 + flow_8_7_0_0
   + flow_9_7_0_0 + flow_10_7_0_0 + flow_15_7_0_0 = 1
 one_parent_8: edge_0_8_0_0 + edge_1_8_0_0 + edge_2_8_0_0 + edge_3_8_0_0
   + edge_4_8_0_0 + edge_6_8_0_0 + edge_7_8_0_0 + edge_9_8_0_0
   + edge_10_8_0_0 + edge_12_8_0_0 + edge_13_8_0_0 + edge_15_8_0_0
   + edge_18_8_0_0 = 1
 consume_one_flow_unit_8: flow_0_8_0_0 + flow_1_8_0_0 + flow_2_8_0_0
   + flow_3_8_0_0 + flow_4_8_0_0 + flow_6_8_0_0 + flow_7_8_0_0
   - flow_8_1_0_0 - flow_8_2_0_0 - flow_8_3_0_0 - flow_8_4_0_0
   - flow_8_5_0_0 - flow_8_6_0_0 - flow_8_7_0_0 - flow_8_9_0_0
   - flow_8_10_0_0 - flow_8_11_0_0 - flow_8_12_0_0 - flow_8_13_0_0
   - flow_8_15_0_0 - flow_8_16_0_0 - flow_8_17_0_0 - flow_8_18_0_0
   - flow_8_20_0_0 - flow_8_21_0_0 + flow_9_8_0_0 + flow_10_8_0_0
   + flow_12_8_0_0 + flow_13_8_0_0 + flow_15_8_0_0 + flow_18_8_0_0 = 1
 one_parent_9: edge_1_9_0_0 + edge_2_9_0_0 + edge_3_9_0_0 + edge_4_9_0_0
   + edge_5_9_0_0 + edge_6_9_0_0 + edge_7_9_0_0 + edge_8_9_0_0
   + edge_10_9_0_0 + edge_12_9_0_0 + edge_13_9_0_0 + edge_15_9_0_0
   + edge_18_9_0_0 = 1
 consume_one_flow_unit_9: flow_1_9_0_0 + flow_2_9_0_0 + flow_3_9_0_0
   + flow_4_9_0_0 + flow_5_9_0_0 + flow_6_9_0_0 + flow_7_9_0_0
   + flow_8_9_0_0 - flow_9_2_0_0 - flow_9_3_0_0 - flow_9_4_0_0
   - flow_9_6_0_0 - flow_9_7_0_0 - flow_9_8_0_0 - flow_9_10_0_0
   - flow_9_11_0_0 - flow_9_12_0_0 - flow_9_16_0_0 + flow_10_9_0_0
   + flow_12_9_0_0 + flow_13_9_0_0 + flow_15_9_0_0 + flow_18_9_0_0 = 1
 one_parent_10: edge_2_10_0_0 + edge_3_10_0_0 + edge_4_10_0_0
   + edge_6_10_0_0 + edge_7_10_0_0 + edge_8_10_0_0 + edge_9_10_0_0
   + edge_12_10_0_0 + edge_13_10_0_0 + edge_15_10_0_0 + edge_18_10_0_0 = 1
 consume_one_flow_unit_10: flow_2_10_0_0 + flow_3_10_0_0 + flow_4_10_0_0
   + flow_6_10_0_0 + flow_7_10_0_0 + flow_8_10_0_0 + flow_9_10_0_0
   - flow_10_1_0_0 - flow_10_2_0_0 - flow_10_3_0_0 - flow_10_4_0_0
   - flow_10_6_0_0 - flow_10_7_0_0 - flow_10_8_0_0 - flow_10_9_0_0
   - flow_10_11_0_0 - flow_10_12_0_0 - flow_10_13_0_0 - flow_10_15_0_0
   - flow_10_16_0_0 - flow_10_17_0_0 - flow_10_18_0_0 - flow_10_20_0_0
   - flow_10_21_0_0 + flow_12_10_0_0 + flow_13_10_0_0 + flow_15_10_0_0
   + flow_18_10_0_0 = 1
 one_parent_11: edge_2_11_0_0 + edge_3_11_0_0 + edge_6_11_0_0
   + edge_8_11_0_0 + edge_9_11_0_0 + edge_10_11_0_0 + edge_12_11_0_0
   + edge_15_11_0_0 + edge_18_11_0_0 = 1
 consume_one_flow_unit_11: flow_2_11_0_0 + flow_3_11_0_0 + flow_6_11_0_0
   + flow_8_11_0_0 + flow_9_11_0_0 + flow_10_11_0_0 + flow_12_11_0_0
   + flow_15_11_0_0 + flow_18_11_0_0 = 1
 one_parent_12: edge_2_12_0_0 + edge_3_12_0_0 + edge_4_12_0_0
   + edge_6_12_0_0 + edge_7_12_0_0 + edge_8_12_0_0 + edge_9_12_0_0
   + edge_10_12_0_0 + edge_13_12_0_0 + edge_15_12_0_0 + edge_18_12_0_0 = 1
 consume_one_flow_unit_12: flow_2_12_0_0 + flow_3_12_0_0 + flow_4_12_0_0
   + flow_6_12_0_0 + flow_7_12_0_0 + flow_8_12_0_0 + flow_9_12_0_0
   + flow_10_12_0_0 - flow_12_8_0_0 - flow_12_9_0_0 - flow_12_10_0_0
   - flow_12_11_0_0 - flow_12_13_0_0 - flow_12_15_0_0 - flow_12_17_0_0
   - flow_12_20_0_0 + flow_13_12_0_0 + flow_15_12_0_0 + flow_18_12_0_0 = 1
 one_parent_13: edge_0_13_0_0 + edge_2_13_0_0 + edge_3_13_0_0
   + edge_4_13_0_0 + edge_6_13_0_0 + edge_7_13_0_0 + edge_8_13_0_0
   + edge_10_13_0_0 + edge_12_13_0_0 + edge_14_13_0_0 + edge_15_13_0_0
   + edge_17_13_0_0 + edge_18_13_0_0 + edge_20_13_0_0 = 1
 consume_one_flow_unit_13: flow_0_13_0_0 + flow_2_13_0_0 + flow_3_13_0_0
   + flow_4_13_0_0 + flow_6_13_0_0 + flow_7_13_0_0 + flow_8_13_0_0
   + flow_10_13_0_0 + flow_12_13_0_0 - flow_13_2_0_0 - flow_13_3_0_0
   - flow_13_8_0_0 - flow_13_9_0_0 - flow_13_10_0_0 - flow_13_12_0_0
   - flow_13_15_0_0 - flow_13_17_0_0 - flow_13_18_0_0 - flow_13_20_0_0
   - flow_13_21_0_0 + flow_14_13_0_0 + flow_15_13_0_0 + flow_17_13_0_0
   + flow_18_13_0_0 + flow_20_13_0_0 = 1
 one_parent_14: edge_15_14_0_0 = 1
 consume_one_flow_unit_14: - flow_14_13_0_0 + flow_15_14_0_0 = 1
 one_parent_15: edge_0_15_0_0 + edge_2_15_0_0 + edge_3_15_0_0
   + edge_4_15_0_0 + edge_6_15_0_0 + edge_7_15_0_0 + edge_8_15_0_0
   + edge_10_15_0_0 + edge_12_15_0_0 + edge_13_15_0_0 + edge_16_15_0_0
   + edge_17_15_0_0 + edge_18_15_0_0 + edge_20_15_0_0 = 1
 consume_one_flow_unit_15: flow_0_15_0_0 + flow_2_15_0_0 + flow_3_15_0_0
   + flow_4_15_0_0 + flow_6_15_0_0 + flow_7_15_0_0 + flow_8_15_0_0
   + flow_10_15_0_0 + flow_12_15_0_0 + flow_13_15_0_0 - flow_15_1_0_0
   - flow_15_2_0_0 - flow_15_3_0_0 - flow_15_4_0_0 - flow_15_6_0_0
   - flow_15_7_0_0 - flow_15_8_0_0 - flow_15_9_0_0 - flow_15_10_0_0
   - flow_15_11_0_0 - flow_15_12_0_0 - flow_15_13_0_0 - flow_15_14_0_0
   - flow_15_16_0_0 - flow_15_17_0_0 - flow_15_18_0_0 - flow_15_20_0_0
   - flow_15_21_0_0 + flow_16_15_0_0 + flow_17_15_0_0 + flow_18_15_0_0
   + flow_20_15_0_0 = 1
 one_parent_16: edge_2_16_0_0 + edge_3_16_0_0 + edge_6_16_0_0
   + edge_8_16_0_0 + edge_9_16_0_0 + edge_10_16_0_0 + edge_15_16_0_0
   + edge_18_16_0_0 = 1
 consume_one_flow_unit_16: flow_2_16_0_0 + flow_3_16_0_0 + flow_6_16_0_0
   + flow_8_16_0_0 + flow_9_16_0_0 + flow_10_16_0_0 + flow_15_16_0_0
   - flow_16_15_0_0 + flow_18_16_0_0 = 1
 one_parent_17: edge_2_17_0_0 + edge_3_17_0_0 + edge_4_17_0_0
   + edge_6_17_0_0 + edge_8_17_0_0 + edge_10_17_0_0 + edge_12_17_0_0
   + edge_13_17_0_0 + edge_15_17_0_0 + edge_18_17_0_0 + edge_20_17_0_0 = 1
 consume_one_flow_unit_17: flow_2_17_0_0 + flow_3_17_0_0 + flow_4_17_0_0
   + flow_6_17_0_0 + flow_8_17_0_0 + flow_10_17_0_0 + flow_12_17_0_0
   + flow_13_17_0_0 + flow_15_17_0_0 - flow_17_13_0_0 - flow_17_15_0_0
   - flow_17_18_0_0 - flow_17_20_0_0 - flow_17_21_0_0 + flow_18_17_0_0
   + flow_20_17_0_0 = 1
 one_parent_18: edge_0_18_0_0 + edge_2_18_0_0 + edge_3_18_0_0
   + edge_4_18_0_0 + edge_6_18_0_0 + edge_7_18_0_0 + edge_8_18_0_0
   + edge_10_18_0_0 + edge_13_18_0_0 + edge_15_18_0_0 + edge_17_18_0_0
   + edge_21_18_0_0 = 1
 consume_one_flow_unit_18: flow_0_18_0_0 + flow_2_18_0_0 + flow_3_18_0_0
   + flow_4_18_0_0 + flow_6_18_0_0 + flow_7_18_0_0 + flow_8_18_0_0
   + flow_10_18_0_0 + flow_13_18_0_0 + flow_15_18_0_0 + flow_17_18_0_0
   - flow_18_1_0_0 - flow_18_2_0_0 - flow_18_3_0_0 - flow_18_4_0_0
   - flow_18_6_0_0 - flow_18_8_0_0 - flow_18_9_0_0 - flow_18_10_0_0
   - flow_18_11_0_0 - flow_18_12_0_0 - flow_18_13_0_0 - flow_18_15_0_0
   - flow_18_16_0_0 - flow_18_17_0_0 - flow_18_20_0_0 - flow_18_21_0_0
   + flow_21_18_0_0 = 1
 one_parent_19: = 1
 consume_one_flow_unit_19: = 1
 one_parent_20: edge_3_20_0_0 + edge_8_20_0_0 + edge_10_20_0_0
   + edge_12_20_0_0 + edge_13_20_0_0 + edge_15_20_0_0 + edge_17_20_0_0
   + edge_18_20_0_0 + edge_21_20_0_0 = 1
 consume_one_flow_unit_20: flow_3_20_0_0 + flow_8_20_0_0 + flow_10_20_0_0
   + flow_12_20_0_0 + flow_13_20_0_0 + flow_15_20_0_0 + flow_17_20_0_0
   + flow_18_20_0_0 - flow_20_1_0_0 - flow_20_13_0_0 - flow_20_15_0_0
   - flow_20_17_0_0 - flow_20_21_0_0 + flow_21_20_0_0 = 1
 one_parent_21: edge_2_21_0_0 + edge_3_21_0_0 + edge_4_21_0_0
   + edge_6_21_0_0 + edge_8_21_0_0 + edge_10_21_0_0 + edge_13_21_0_0
   + edge_15_21_0_0 + edge_17_21_0_0 + edge_18_21_0_0 + edge_20_21_0_0 = 1
 consume_one_flow_unit_21: flow_2_21_0_0 + flow_3_21_0_0 + flow_4_21_0_0
   + flow_6_21_0_0 + flow_8_21_0_0 + flow_10_21_0_0 + flow_13_21_0_0
   + flow_15_21_0_0 + flow_17_21_0_0 + flow_18_21_0_0 + flow_20_21_0_0
   - flow_21_18_0_0 - flow_21_20_0_0 = 1
 root_flow: flow_0_1_0_0 + flow_0_2_0_0 + flow_0_3_0_0 + flow_0_4_0_0
   + flow_0_6_0_0 + flow_0_8_0_0 + flow_0_13_0_0 + flow_0_15_0_0
   + flow_0_18_0_0 = 21
 inactive_no_flow_0_1_0_0: flow_0_1_0_0 - 1000 edge_0_1_0_0 <= 0
 inactive_no_flow_0_2_0_0: flow_0_2_0_0 - 1000 edge_0_2_0_0 <= 0
 inactive_no_flow_0_3_0_0: flow_0_3_0_0 - 1000 edge_0_3_0_0 <= 0
 inactive_no_flow_0_4_0_0: flow_0_4_0_0 - 1000 edge_0_4_0_0 <= 0
 inactive_no_flow_0_6_0_0: flow_0_6_0_0 - 1000 edge_0_6_0_0 <= 0
 inactive_no_flow_0_8_0_0: flow_0_8_0_0 - 1000 edge_0_8_0_0 <= 0
 inactive_no_flow_0_13_0_0: flow_0_13_0_0 - 1000 edge_0_13_0_0 <= 0
 inactive_no_flow_0_15_0_0: flow_0_15_0_0 - 1000 edge_0_15_0_0 <= 0
 inactive_no_flow_0_18_0_0: flow_0_18_0_0 - 1000 edge_0_18_0_0 <= 0
 inactive_no_flow_1_2_0_0: flow_1_2_0_0 - 1000 edge_1_2_0_0 <= 0
 inactive_no_flow_1_3_0_0: flow_1_3_0_0 - 1000 edge_1_3_0_0 <= 0
 inactive_no_flow_1_4_0_0: flow_1_4_0_0 - 1000 edge_1_4_0_0 <= 0
 inactive_no_flow_1_6_0_0: flow_1_6_0_0 - 1000 edge_1_6_0_0 <= 0
 inactive_no_flow_1_8_0_0: flow_1_8_0_0 - 1000 edge_1_8_0_0 <= 0
 inactive_no_flow_1_9_0_0: flow_1_9_0_0 - 1000 edge_1_9_0_0 <= 0
 inactive_no_flow_2_1_0_0: flow_2_1_0_0 - 1000 edge_2_1_0_0 <= 0
 inactive_no_flow_2_3_0_0: flow_2_3_0_0 - 1000 edge_2_3_0_0 <= 0
 inactive_no_flow_2_4_0_0: flow_2_4_0_0 - 1000 edge_2_4_0_0 <= 0
 inactive_no_flow_2_6_0_0: flow_2_6_0_0 - 1000 edge_2_6_0_0 <= 0
 inactive_no_flow_2_7_0_0: flow_2_7_0_0 - 1000 edge_2_7_0_0 <= 0
 inactive_no_flow_2_8_0_0: flow_2_8_0_0 - 1000 edge_2_8_0_0 <= 0
 inactive_no_flow_2_9_0_0: flow_2_9_0_0 - 1000 edge_2_9_0_0 <= 0
 inactive_no_flow_2_10_0_0: flow_2_10_0_0 - 1000 edge_2_10_0_0 <= 0
 inactive_no_flow_2_11_0_0: flow_2_11_0_0 - 1000 edge_2_11_0_0 <= 0
 inactive_no_flow_2_12_0_0: flow_2_12_0_0 - 1000 edge_2_12_0_0 <= 0
 inactive_no_flow_2_13_0_0: flow_2_13_0_0 - 1000 edge_2_13_0_0 <= 0
 inactive_no_flow_2_15_0_0: flow_2_15_0_0 - 1000 edge_2_15_0_0 <= 0
 inactive_no_flow_2_16_0_0: flow_2_16_0_0 - 1000 edge_2_16_0_0 <= 0
 inactive_no_flow_2_17_0_0: flow_2_17_0_0 - 1000 edge_2_17_0_0 <= 0
 inactive_no_flow_2_18_0_0: flow_2_18_0_0 - 1000 edge_2_18_0_0 <= 0
 inactive_no_flow_2_21_0_0: flow_2_21_0_0 - 1000 edge_2_21_0_0 <= 0
 inactive_no_flow_3_1_0_0: flow_3_1_0_0 - 1000 edge_3_1_0_0 <= 0
 inactive_no_flow_3_2_0_0: flow_3_2_0_0 - 1000 edge_3_2_0_0 <= 0
 inactive_no_flow_3_4_0_0: flow_3_4_0_0 - 1000 edge_3_4_0_0 <= 0
 inactive_no_flow_3_5_0_0: flow_3_5_0_0 - 1000 edge_3_5_0_0 <= 0
 inactive_no_flow_3_6_0_0: flow_3_6_0_0 - 1000 edge_3_6_0_0 <= 0
 inactive_no_flow_3_7_0_0: flow_3_7_0_0 - 1000 edge_3_7_0_0 <= 0
 inactive_no_flow_3_8_0_0: flow_3_8_0_0 - 1000 edge_3_8_0_0 <= 0
 inactive_no_flow_3_9_0_0: flow_3_9_0_0 - 1000 edge_3_9_0_0 <= 0
 inactive_no_flow_3_10_0_0: flow_3_10_0_0 - 1000 edge_3_10_0_0 <= 0
 inactive_no_flow_3_11_0_0: flow_3_11_0_0 - 1000 edge_3_11_0_0 <= 0
 inactive_no_flow_3_12_0_0: flow_3_12_0_0 - 1000 edge_3_12_0_0 <= 0
 inactive_no_flow_3_13_0_0: flow_3_13_0_0 - 1000 edge_3_13_0_0 <= 0
 inactive_no_flow_3_15_0_0: flow_3_15_0_0 - 1000 edge_3_15_0_0 <= 0
 inactive_no_flow_3_16_0_0: flow_3_16_0_0 - 1000 edge_3_16_0_0 <= 0
 inactive_no_flow_3_17_0_0: flow_3_17_0_0 - 1000 edge_3_17_0_0 <= 0
 inactive_no_flow_3_18_0_0: flow_3_18_0_0 - 1000 edge_3_18_0_0 <= 0
 inactive_no_flow_3_20_0_0: flow_3_20_0_0 - 1000 edge_3_20_0_0 <= 0
 inactive_no_flow_3_21_0_0: flow_3_21_0_0 - 1000 edge_3_21_0_0 <= 0
 inactive_no_flow_4_1_0_0: flow_4_1_0_0 - 1000 edge_4_1_0_0 <= 0
 inactive_no_flow_4_2_0_0: flow_4_2_0_0 - 1000 edge_4_2_0_0 <= 0
 inactive_no_flow_4_3_0_0: flow_4_3_0_0 - 1000 edge_4_3_0_0 <= 0
 inactive_no_flow_4_6_0_0: flow_4_6_0_0 - 1000 edge_4_6_0_0 <= 0
 inactive_no_flow_4_7_0_0: flow_4_7_0_0 - 1000 edge_4_7_0_0 <= 0
 inactive_no_flow_4_8_0_0: flow_4_8_0_0 - 1000 edge_4_8_0_0 <= 0
 inactive_no_flow_4_9_0_0: flow_4_9_0_0 - 1000 edge_4_9_0_0 <= 0
 inactive_no_flow_4_10_0_0: flow_4_10_0_0 - 1000 edge_4_10_0_0 <= 0
 inactive_no_flow_4_12_0_0: flow_4_12_0_0 - 1000 edge_4_12_0_0 <= 0
 inactive_no_flow_4_13_0_0: flow_4_13_0_0 - 1000 edge_4_13_0_0 <= 0
 inactive_no_flow_4_15_0_0: flow_4_15_0_0 - 1000 edge_4_15_0_0 <= 0
 inactive_no_flow_4_17_0_0: flow_4_17_0_0 - 1000 edge_4_17_0_0 <= 0
 inactive_no_flow_4_18_0_0: flow_4_18_0_0 - 1000 edge_4_18_0_0 <= 0
 inactive_no_flow_4_21_0_0: flow_4_21_0_0 - 1000 edge_4_21_0_0 <= 0
 inactive_no_flow_5_4_0_0: flow_5_4_0_0 - 1000 edge_5_4_0_0 <= 0
 inactive_no_flow_5_9_0_0: flow_5_9_0_0 - 1000 edge_5_9_0_0 <= 0
 inactive_no_flow_6_1_0_0: flow_6_1_0_0 - 1000 edge_6_1_0_0 <= 0
 inactive_no_flow_6_2_0_0: flow_6_2_0_0 - 1000 edge_6_2_0_0 <= 0
 inactive_no_flow_6_3_0_0: flow_6_3_0_0 - 1000 edge_6_3_0_0 <= 0
 inactive_no_flow_6_4_0_0: flow_6_4_0_0 - 1000 edge_6_4_0_0 <= 0
 inactive_no_flow_6_5_0_0: flow_6_5_0_0 - 1000 edge_6_5_0_0 <= 0
 inactive_no_flow_6_7_0_0: flow_6_7_0_0 - 1000 edge_6_7_0_0 <= 0
 inactive_no_flow_6_8_0_0: flow_6_8_0_0 - 1000 edge_6_8_0_0 <= 0
 inactive_no_flow_6_9_0_0: flow_6_9_0_0 - 1000 edge_6_9_0_0 <= 0
 inactive_no_flow_6_10_0_0: flow_6_10_0_0 - 1000 edge_6_10_0_0 <= 0
 inactive_no_flow_6_11_0_0: flow_6_11_0_0 - 1000 edge_6_11_0_0 <= 0
 inactive_no_flow_6_12_0_0: flow_6_12_0_0 - 1000 edge_6_12_0_0 <= 0
 inactive_no_flow_6_13_0_0: flow_6_13_0_0 - 1000 edge_6_13_0_0 <= 0
 inactive_no_flow_6_15_0_0: flow_6_15_0_0 - 1000 edge_6_15_0_0 <= 0
 inactive_no_flow_6_16_0_0: flow_6_16_0_0 - 1000 edge_6_16_0_0 <= 0
 inactive_no_flow_6_17_0_0: flow_6_17_0_0 - 1000 edge_6_17_0_0 <= 0
 inactive_no_flow_6_18_0_0: flow_6_18_0_0 - 1000 edge_6_18_0_0 <= 0
 inactive_no_flow_6_21_0_0: flow_6_21_0_0 - 1000 edge_6_21_0_0 <= 0
 inactive_no_flow_7_2_0_0: flow_7_2_0_0 - 1000 edge_7_2_0_0 <= 0
 inactive_no_flow_7_4_0_0: flow_7_4_0_0 - 1000 edge_7_4_0_0 <= 0
 inactive_no_flow_7_6_0_0: flow_7_6_0_0 - 1000 edge_7_6_0_0 <= 0
 inactive_no_flow_7_8_0_0: flow_7_8_0_0 - 1000 edge_7_8_0_0 <= 0
 inactive_no_flow_7_9_0_0: flow_7_9_0_0 - 1000 edge_7_9_0_0 <= 0
 inactive_no_flow_7_10_0_0: flow_7_10_0_0 - 1000 edge_7_10_0_0 <= 0
 inactive_no_flow_7_12_0_0: flow_7_12_0_0 - 1000 edge_7_12_0_0 <= 0
 inactive_no_flow_7_13_0_0: flow_7_13_0_0 - 1000 edge_7_13_0_0 <= 0
 inactive_no_flow_7_15_0_0: flow_7_15_0_0 - 1000 edge_7_15_0_0 <= 0
 inactive_no_flow_7_18_0_0: flow_7_18_0_0 - 1000 edge_7_18_0_0 <= 0
 inactive_no_flow_8_1_0_0: flow_8_1_0_0 - 1000 edge_8_1_0_0 <= 0
 inactive_no_flow_8_2_0_0: flow_8_2_0_0 - 1000 edge_8_2_0_0 <= 0
 inactive_no_flow_8_3_0_0: flow_8_3_0_0 - 1000 edge_8_3_0_0 <= 0
 inactive_no_flow_8_4_0_0: flow_8_4_0_0 - 1000 edge_8_4_0_0 <= 0
 inactive_no_flow_8_5_0_0: flow_8_5_0_0 - 1000 edge_8_5_0_0 <= 0
 inactive_no_flow_8_6_0_0: flow_8_6_0_0 - 1000 edge_8_6_0_0 <= 0
 inactive_no_flow_8_7_0_0: flow_8_7_0_0 - 1000 edge_8_7_0_0 <= 0
 inactive_no_flow_8_9_0_0: flow_8_9_0_0 - 1000 edge_8_9_0_0 <= 0
 inactive_no_flow_8_10_0_0: flow_8_10_0_0 - 1000 edge_8_10_0_0 <= 0
 inactive_no_flow_8_11_0_0: flow_8_11_0_0 - 1000 edge_8_11_0_0 <= 0
 inactive_no_flow_8_12_0_0: flow_8_12_0_0 - 1000 edge_8_12_0_0 <= 0
 inactive_no_flow_8_13_0_0: flow_8_13_0_0 - 1000 edge_8_13_0_0 <= 0
 inactive_no_flow_8_15_0_0: flow_8_15_0_0 - 1000 edge_8_15_0_0 <= 0
 inactive_no_flow_8_16_0_0: flow_8_16_0_0 - 1000 edge_8_16_0_0 <= 0
 inactive_no_flow_8_17_0_0: flow_8_17_0_0 - 1000 edge_8_17_0_0 <= 0
 inactive_no_flow_8_18_0_0: flow_8_18_0_0 - 1000 edge_8_18_0_0 <= 0
 inactive_no_flow_8_20_0_0: flow_8_20_0_0 - 1000 edge_8_20_0_0 <= 0
 inactive_no_flow_8_21_0_0: flow_8_21_0_0 - 1000 edge_8_21_0_0 <= 0
 inactive_no_flow_9_2_0_0: flow_9_2_0_0 - 1000 edge_9_2_0_0 <= 0
 inactive_no_flow_9_3_0_0: flow_9_3_0_0 - 1000 edge_9_3_0_0 <= 0
 inactive_no_flow_9_4_0_0: flow_9_4_0_0 - 1000 edge_9_4_0_0 <= 0
 inactive_no_flow_9_6_0_0: flow_9_6_0_0 - 1000 edge_9_6_0_0 <= 0
 inactive_no_flow_9_7_0_0: flow_9_7_0_0 - 1000 edge_9_7_0_0 <= 0
 inactive_no_flow_9_8_0_0: flow_9_8_0_0 - 1000 edge_9_8_0_0 <= 0
 inactive_no_flow_9_10_0_0: flow_9_10_0_0 - 1000 edge_9_10_0_0 <= 0
 inactive_no_flow_9_11_0_0: flow_9_11_0_0 - 1000 edge_9_11_0_0 <= 0
 inactive_no_flow_9_12_0_0: flow_9_12_0_0 - 1000 edge_9_12_0_0 <= 0
 inactive_no_flow_9_16_0_0: flow_9_16_0_0 - 1000 edge_9_16_0_0 <= 0
 inactive_no_flow_10_1_0_0: flow_10_1_0_0 - 1000 edge_10_1_0_0 <= 0
 inactive_no_flow_10_2_0_0: flow_10_2_0_0 - 1000 edge_10_2_0_0 <= 0
 inactive_no_flow_10_3_0_0: flow_10_3_0_0 - 1000 edge_10_3_0_0 <= 0
 inactive_no_flow_10_4_0_0: flow_10_4_0_0 - 1000 edge_10_4_0_0 <= 0
 inactive_no_flow_10_6_0_0: flow_10_6_0_0 - 1000 edge_10_6_0_0 <= 0
 inactive_no_flow_10_7_0_0: flow_10_7_0_0 - 1000 edge_10_7_0_0 <= 0
 inactive_no_flow_10_8_0_0: flow_10_8_0_0 - 1000 edge_10_8_0_0 <= 0
 inactive_no_flow_10_9_0_0: flow_10_9_0_0 - 1000 edge_10_9_0_0 <= 0
 inactive_no_flow_10_11_0_0: flow_10_11_0_0 - 1000 edge_10_11_0_0 <= 0
 inactive_no_flow_10_12_0_0: flow_10_12_0_0 - 1000 edge_10_12_0_0 <= 0
 inactive_no_flow_10_13_0_0: flow_10_13_0_0 - 1000 edge_10_13_0_0 <= 0
 inactive_no_flow_10_15_0_0: flow_10_15_0_0 - 1000 edge_10_15_0_0 <= 0
 inactive_no_flow_10_16_0_0: flow_10_16_0_0 - 1000 edge_10_16_0_0 <= 0
 inactive_no_flow_10_17_0_0: flow_10_17_0_0 - 1000 edge_10_17_0_0 <= 0
 inactive_no_flow_10_18_0_0: flow_10_18_0_0 - 1000 edge_10_18_0_0 <= 0
 inactive_no_flow_10_20_0_0: flow_10_20_0_0 - 1000 edge_10_20_0_0 <= 0
 inactive_no_flow_10_21_0_0: flow_10_21_0_0 - 1000 edge_10_21_0_0 <= 0
 inactive_no_flow_12_8_0_0: flow_12_8_0_0 - 1000 edge_12_8_0_0 <= 0
 inactive_no_flow_12_9_0_0: flow_12_9_0_0 - 1000 edge_12_9_0_0 <= 0
 inactive_no_flow_12_10_0_0: flow_12_10_0_0 - 1000 edge_12_10_0_0 <= 0
 inactive_no_flow_12_11_0_0: flow_12_11_0_0 - 1000 edge_12_11_0_0 <= 0
 inactive_no_flow_12_13_0_0: flow_12_13_0_0 - 1000 edge_12_13_0_0 <= 0
 inactive_no_flow_12_15_0_0: flow_12_15_0_0 - 1000 edge_12_15_0_0 <= 0
 inactive_no_flow_12_17_0_0: flow_12_17_0_0 - 1000 edge_12_17_0_0 <= 0
 inactive_no_flow_12_20_0_0: flow_12_20_0_0 - 1000 edge_12_20_0_0 <= 0
 inactive_no_flow_13_2_0_0: flow_13_2_0_0 - 1000 edge_13_2_0_0 <= 0
 inactive_no_flow_13_3_0_0: flow_13_3_0_0 - 1000 edge_13_3_0_0 <= 0
 inactive_no_flow_13_8_0_0: flow_13_8_0_0 - 1000 edge_13_8_0_0 <= 0
 inactive_no_flow_13_9_0_0: flow_13_9_0_0 - 1000 edge_13_9_0_0 <= 0
 inactive_no_flow_13_10_0_0: flow_13_10_0_0 - 1000 edge_13_10_0_0 <= 0
 inactive_no_flow_13_12_0_0: flow_13_12_0_0 - 1000 edge_13_12_0_0 <= 0
 inactive_no_flow_13_15_0_0: flow_13_15_0_0 - 1000 edge_13_15_0_0 <= 0
 inactive_no_flow_13_17_0_0: flow_13_17_0_0 - 1000 edge_13_17_0_0 <= 0
 inactive_no_flow_13_18_0_0: flow_13_18_0_0 - 1000 edge_13_18_0_0 <= 0
 inactive_no_flow_13_20_0_0: flow_13_20_0_0 - 1000 edge_13_20_0_0 <= 0
 inactive_no_flow_13_21_0_0: flow_13_21_0_0 - 1000 edge_13_21_0_0 <= 0
 inactive_no_flow_14_13_0_0: flow_14_13_0_0 - 1000 edge_14_13_0_0 <= 0
 inactive_no_flow_15_1_0_0: flow_15_1_0_0 - 1000 edge_15_1_0_0 <= 0
 inactive_no_flow_15_2_0_0: flow_15_2_0_0 - 1000 edge_15_2_0_0 <= 0
 inactive_no_flow_15_3_0_0: flow_15_3_0_0 - 1000 edge_15_3_0_0 <= 0
 inactive_no_flow_15_4_0_0: flow_15_4_0_0 - 1000 edge_15_4_0_0 <= 0
 inactive_no_flow_15_6_0_0: flow_15_6_0_0 - 1000 edge_15_6_0_0 <= 0
 inactive_no_flow_15_7_0_0: flow_15_7_0_0 - 1000 edge_15_7_0_0 <= 0
 inactive_no_flow_15_8_0_0: flow_15_8_0_0 - 1000 edge_15_8_0_0 <= 0
 inactive_no_flow_15_9_0_0: flow_15_9_0_0 - 1000 edge_15_9_0_0 <= 0
 inactive_no_flow_15_10_0_0: flow_15_10_0_0 - 1000 edge_15_10_0_0 <= 0
 inactive_no_flow_15_11_0_0: flow_15_11_0_0 - 1000 edge_15_11_0_0 <= 0
 inactive_no_flow_15_12_0_0: flow_15_12_0_0 - 1000 edge_15_12_0_0 <= 0
 inactive_no_flow_15_13_0_0: flow_15_13_0_0 - 1000 edge_15_13_0_0 <= 0
 inactive_no_flow_15_14_0_0: flow_15_14_0_0 - 1000 edge_15_14_0_0 <= 0
 inactive_no_flow_15_16_0_0: flow_15_16_0_0 - 1000 edge_15_16_0_0 <= 0
 inactive_no_flow_15_17_0_0: flow_15_17_0_0 - 1000 edge_15_17_0_0 <= 0
 inactive_no_flow_15_18_0_0: flow_15_18_0_0 - 1000 edge_15_18_0_0 <= 0
 inactive_no_flow_15_20_0_0: flow_15_20_0_0 - 1000 edge_15_20_0_0 <= 0
 inactive_no_flow_15_21_0_0: flow_15_21_0_0 - 1000 edge_15_21_0_0 <= 0
 inactive_no_flow_16_15_0_0: flow_16_15_0_0 - 1000 edge_16_15_0_0 <= 0
 inactive_no_flow_17_13_0_0: flow_17_13_0_0 - 1000 edge_17_13_0_0 <= 0
 inactive_no_flow_17_15_0_0: flow_17_15_0_0 - 1000 edge_17_15_0_0 <= 0
 inactive_no_flow_17_18_0_0: flow_17_18_0_0 - 1000 edge_17_18_0_0 <= 0
 inactive_no_flow_17_20_0_0: flow_17_20_0_0 - 1000 edge_17_20_0_0 <= 0
 inactive_no_flow_17_21_0_0: flow_17_21_0_0 - 1000 edge_17_21_0_0 <= 0
 inactive_no_flow_18_1_0_0: flow_18_1_0_0 - 1000 edge_18_1_0_0 <= 0
 inactive_no_flow_18_2_0_0: flow_18_2_0_0 - 1000 edge_18_2_0_0 <= 0
 inactive_no_flow_18_3_0_0: flow_18_3_0_0 - 1000 edge_18_3_0_0 <= 0
 inactive_no_flow_18_4_0_0: flow_18_4_0_0 - 1000 edge_18_4_0_0 <= 0
 inactive_no_flow_18_6_0_0: flow_18_6_0_0 - 1000 edge_18_6_0_0 <= 0
 inactive_no_flow_18_8_0_0: flow_18_8_0_0 - 1000 edge_18_8_0_0 <= 0
 inactive_no_flow_18_9_0_0: flow_18_9_0_0 - 1000 edge_18_9_0_0 <= 0
 inactive_no_flow_18_10_0_0: flow_18_10_0_0 - 1000 edge_18_10_0_0 <= 0
 inactive_no_flow_18_11_0_0: flow_18_11_0_0 - 1000 edge_18_11_0_0 <= 0
 inactive_no_flow_18_12_0_0: flow_18_12_0_0 - 1000 edge_18_12_0_0 <= 0
 inactive_no_flow_18_13_0_0: flow_18_13_0_0 - 1000 edge_18_13_0_0 <= 0
 inactive_no_flow_18_15_0_0: flow_18_15_0_0 - 1000 edge_18_15_0_0 <= 0
 inactive_no_flow_18_16_0_0: flow_18_16_0_0 - 1000 edge_18_16_0_0 <= 0
 inactive_no_flow_18_17_0_0: flow_18_17_0_0 - 1000 edge_18_17_0_0 <= 0
 inactive_no_flow_18_20_0_0: flow_18_20_0_0 - 1000 edge_18_20_0_0 <= 0
 inactive_no_flow_18_21_0_0: flow_18_21_0_0 - 1000 edge_18_21_0_0 <= 0
 inactive_no_flow_20_1_0_0: flow_20_1_0_0 - 1000 edge_20_1_0_0 <= 0
 inactive_no_flow_20_13_0_0: flow_20_13_0_0 - 1000 edge_20_13_0_0 <= 0
 inactive_no_flow_20_15_0_0: flow_20_15_0_0 - 1000 edge_20_15_0_0 <= 0
 inactive_no_flow_20_17_0_0: flow_20_17_0_0 - 1000 edge_20_17_0_0 <= 0
 inactive_no_flow_20_21_0_0: flow_20_21_0_0 - 1000 edge_20_21_0_0 <= 0
 inactive_no_flow_21_18_0_0: flow_21_18_0_0 - 1000 edge_21_18_0_0 <= 0
 inactive_no_flow_21_20_0_0: flow_21_20_0_0 - 1000 edge_21_20_0_0 <= 0
Bounds
Binaries
 edge_0_1_0_0 edge_0_2_0_0 edge_0_3_0_0 edge_0_4_0_0 edge_0_6_0_0
 edge_0_8_0_0 edge_0_13_0_0 edge_0_15_0_0 edge_0_18_0_0 edge_1_2_0_0
 edge_1_3_0_0 edge_1_4_0_0 edge_1_6_0_0 edge_1_8_0_0 edge_1_9_0_0
 edge_2_1_0_0 edge_2_3_0_0 edge_2_4_0_0 edge_2_6_0_0 edge_2_7_0_0
 edge_2_8_0_0 edge_2_9_0_0 edge_2_10_0_0 edge_2_11_0_0 edge_2_12_0_0
 edge_2_13_0_0 edge_2_15_0_0 edge_2_16_0_0 edge_2_17_0_0 edge_2_18_0_0
 edge_2_21_0_0 edge_3_1_0_0 edge_3_2_0_0 edge_3_4_0_0 edge_3_5_0_0
 edge_3_6_0_0 edge_3_7_0_0 edge_3_8_0_0 edge_3_9_0_0 edge_3_10_0_0
 edge_3_11_0_0 edge_3_12_0_0 edge_3_13_0_0 edge_3_15_0_0 edge_3_16_0_0
 edge_3_17_0_0 edge_3_18_0_0 edge_3_20_0_0 edge_3_21_0_0 edge_4_1_0_0
 edge_4_2_0_0 edge_4_3_0_0 edge_4_6_0_0 edge_4_7_0_0 edge_4_8_0_0
 edge_4_9_0_0 edge_4_10_0_0 edge_4_12_0_0 edge_4_13_0_0 edge_4_15_0_0
 edge_4_17_0_0 edge_4_18_0_0 edge_4_21_0_0 edge_5_4_0_0 edge_5_9_0_0
 edge_6_1_0_0 edge_6_2_0_0 edge_6_3_0_0 edge_6_4_0_0 edge_6_5_0_0
 edge_6_7_0_0 edge_6_8_0_0 edge_6_9_0_0 edge_6_10_0_0 edge_6_11_0_0
 edge_6_12_0_0 edge_6_13_0_0 edge_6_15_0_0 edge_6_16_0_0 edge_6_17_0_0
 edge_6_18_0_0 edge_6_21_0_0 edge_7_2_0_0 edge_7_4_0_0 edge_7_6_0_0
 edge_7_8_0_0 edge_7_9_0_0 edge_7_10_0_0 edge_7_12_0_0 edge_7_13_0_0
 edge_7_15_0_0 edge_7_18_0_0 edge_8_1_0_0 edge_8_2_0_0 edge_8_3_0_0
 edge_8_4_0_0 edge_8_5_0_0 edge_8_6_0_0 edge_8_7_0_0 edge_8_9_0_0
 edge_8_10_0_0 edge_8_11_0_0 edge_8_12_0_0 edge_8_13_0_0 edge_8_15_0_0
 edge_8_16_0_0 edge_8_17_0_0 edge_8_18_0_0 edge_8_20_0_0 edge_8_21_0_0
 edge_9_2_0_0 edge_9_3_0_0 edge_9_4_0_0 edge_9_6_0_0 edge_9_7_0_0
 edge_9_8_0_0 edge_9_10_0_0 edge_9_11_0_0 edge_9_12_0_0 edge_9_16_0_0
 edge_10_1_0_0 edge_10_2_0_0 edge_10_3_0_0 edge_10_4_0_0 edge_10_6_0_0
 edge_10_7_0_0 edge_10_8_0_0 edge_10_9_0_0 edge_10_11_0_0 edge_10_12_0_0
 edge_10_13_0_0 edge_10_15_0_0 edge_10_16_0_0 edge_10_17_0_0 edge_10_18_0_0
 edge_10_20_0_0 edge_10_21_0_0 edge_12_8_0_0 edge_12_9_0_0 edge_12_10_0_0
 edge_12_11_0_0 edge_12_13_0_0 edge_12_15_0_0 edge_12_17_0_0 edge_12_20_0_0
 edge_13_2_0_0 edge_13_3_0_0 edge_13_8_0_0 edge_13_9_0_0 edge_13_10_0_0
 edge_13_12_0_0 edge_13_15_0_0 edge_13_17_0_0 edge_13_18_0_0 edge_13_20_0_0
 edge_13_21_0_0 edge_14_13_0_0 edge_15_1_0_0 edge_15_2_0_0 edge_15_3_0_0
 edge_15_4_0_0 edge_15_6_0_0 edge_15_7_0_0 edge_15_8_0_0 edge_15_9_0_0
 edge_15_10_0_0 edge_15_11_0_0 edge_15_12_0_0 edge_15_13_0_0 edge_15_14_0_0
 edge_15_16_0_0 edge_15_17_0_0 edge_15_18_0_0 edge_15_20_0_0 edge_15_21_0_0
 edge_16_15_0_0 edge_17_13_0_0 edge_17_15_0_0 edge_17_18_0_0 edge_17_20_0_0
 edge_17_21_0_0 edge_18_1_0_0 edge_18_2_0_0 edge_18_3_0_0 edge_18_4_0_0
 edge_18_6_0_0 edge_18_8_0_0 edge_18_9_0_0 edge_18_10_0_0 edge_18_11_0_0
 edge_18_12_0_0 edge_18_13_0_0 edge_18_15_0_0 edge_18_16_0_0 edge_18_17_0_0
 edge_18_20_0_0 edge_18_21_0_0 edge_20_1_0_0 edge_20_13_0_0 edge_20_15_0_0
 edge_20_17_0_0 edge_20_21_0_0 edge_21_18_0_0 edge_21_20_0_0
End
